[runlim] version:		2.0.0rc12
[runlim] host:			ap-Precision-7550
[runlim] time limit:		311040000 seconds
[runlim] real time limit:	600 seconds
[runlim] space limit:		14000 MB
[runlim] argv[0]:		python3
[runlim] argv[1]:		cp.py
[runlim] argv[2]:		graph02
[runlim] start:			Thu Mar 26 02:39:38 2026
[runlim] child:			31307
--- Building model for 400 variables ---
--- Solving with CP Optimizer (Integer Mode) ---
 ! --------------------------------------------------- CP Optimizer 22.1.1.0 --
 ! Minimization problem - 400 variables, 2245 constraints
 ! LogVerbosity         = Terse
 ! Initial process time : 0.01s (0.01s extraction + 0.00s propagation)
 !  . Log search space  : 1991.9 (before), 1991.9 (after)
 !  . Memory usage      : 1.3 MB (before), 1.3 MB (after)
 ! Using parallel search with 12 workers.
 ! ----------------------------------------------------------------------------
 !          Best Branches  Non-fixed    W       Branch decision
                        0        400                 -
 + New bound is 0
                        0        400                 -
 + New bound is 1
                        2        400    1   F   142 != node_245
 + New bound is 2
 *            32      412  0.06s        1      (gap is 93.75%)
 *            30      408  0.06s        2      (gap is 93.33%)
 *            28     1889  0.10s        1      (gap is 92.86%)
 *            26     2957  0.14s        6      (gap is 92.31%)
 *            24     3953  0.18s        3      (gap is 91.67%)
 *            22     5947  0.25s        8      (gap is 90.91%)
 *            20     8062  0.35s        8      (gap is 90.00%)
 *            18    11843  0.48s       11      (gap is 88.89%)
 *            16    21673  0.98s       12      (gap is 87.50%)
 *            14    29684  2.27s        1      (gap is 85.71%)
              14     188k        356    4   F   778 != node_231
 + New bound is 3 (gap is 78.57%)
[runlim] sample:		73.80 time, 10.01 real, 216 MB, 8.59 load
[runlim] sample:		151.61 time, 20.01 real, 220 MB, 9.11 load
[runlim] sample:		227.82 time, 30.01 real, 223 MB, 9.49 load
[runlim] sample:		304.25 time, 40.01 real, 225 MB, 9.80 load
              14     980k        386   11   F   142 != node_311
 + New bound is 4 (gap is 71.43%)
[runlim] sample:		377.75 time, 50.01 real, 227 MB, 8.81 load
[runlim] sample:		455.54 time, 60.01 real, 229 MB, 9.16 load
[runlim] sample:		533.09 time, 70.02 real, 230 MB, 8.71 load
[runlim] sample:		607.99 time, 80.01 real, 231 MB, 8.41 load
[runlim] sample:		684.47 time, 90.02 real, 232 MB, 7.66 load
[runlim] sample:		763.03 time, 100.01 real, 232 MB, 7.77 load
[runlim] sample:		846.57 time, 110.01 real, 233 MB, 7.12 load
[runlim] sample:		919.16 time, 120.01 real, 233 MB, 7.87 load
[runlim] sample:		1002.53 time, 130.01 real, 234 MB, 7.69 load
[runlim] sample:		1080.32 time, 140.02 real, 235 MB, 6.66 load
[runlim] sample:		1157.43 time, 150.01 real, 237 MB, 7.48 load
[runlim] sample:		1230.09 time, 160.01 real, 237 MB, 7.54 load
[runlim] sample:		1308.10 time, 170.01 real, 237 MB, 8.30 load
[runlim] sample:		1385.76 time, 180.01 real, 240 MB, 8.73 load
[runlim] sample:		1464.97 time, 190.01 real, 241 MB, 8.71 load
[runlim] sample:		1542.16 time, 200.02 real, 243 MB, 8.99 load
[runlim] sample:		1614.77 time, 210.01 real, 244 MB, 9.15 load
[runlim] sample:		1696.70 time, 220.02 real, 245 MB, 8.95 load
[runlim] sample:		1772.89 time, 230.01 real, 245 MB, 7.88 load
[runlim] sample:		1844.47 time, 240.01 real, 246 MB, 8.06 load
[runlim] sample:		1915.21 time, 250.01 real, 246 MB, 6.97 load
[runlim] sample:		1994.64 time, 260.02 real, 247 MB, 7.37 load
[runlim] sample:		2070.50 time, 270.01 real, 248 MB, 7.20 load
[runlim] sample:		2150.27 time, 280.01 real, 249 MB, 8.02 load
[runlim] sample:		2225.44 time, 290.01 real, 250 MB, 7.83 load
[runlim] sample:		2307.16 time, 300.02 real, 251 MB, 8.63 load
[runlim] sample:		2381.00 time, 310.02 real, 251 MB, 8.34 load
[runlim] sample:		2460.78 time, 320.01 real, 251 MB, 8.83 load
[runlim] sample:		2533.10 time, 330.01 real, 252 MB, 9.39 load
[runlim] sample:		2612.53 time, 340.02 real, 252 MB, 8.90 load
[runlim] sample:		2683.55 time, 350.01 real, 253 MB, 7.83 load
[runlim] sample:		2758.85 time, 360.01 real, 253 MB, 7.62 load
[runlim] sample:		2836.52 time, 370.01 real, 253 MB, 8.37 load
[runlim] sample:		2910.28 time, 380.02 real, 255 MB, 8.69 load
[runlim] sample:		2991.46 time, 390.01 real, 256 MB, 9.12 load
[runlim] sample:		3068.54 time, 400.01 real, 257 MB, 8.61 load
[runlim] sample:		3146.19 time, 410.01 real, 257 MB, 9.05 load
[runlim] sample:		3225.54 time, 420.01 real, 258 MB, 9.43 load
[runlim] sample:		3298.95 time, 430.01 real, 264 MB, 9.58 load
[runlim] sample:		3372.17 time, 440.01 real, 266 MB, 9.22 load
[runlim] sample:		3449.65 time, 450.01 real, 266 MB, 9.64 load
[runlim] sample:		3529.30 time, 460.02 real, 266 MB, 9.21 load
[runlim] sample:		3600.14 time, 470.02 real, 267 MB, 9.72 load
[runlim] sample:		3676.92 time, 480.01 real, 267 MB, 9.63 load
[runlim] sample:		3754.52 time, 490.01 real, 267 MB, 10.07 load
[runlim] sample:		3832.86 time, 500.02 real, 267 MB, 10.37 load
[runlim] sample:		3913.86 time, 510.01 real, 271 MB, 9.90 load
[runlim] sample:		3988.62 time, 520.01 real, 271 MB, 10.23 load
[runlim] sample:		4061.16 time, 530.01 real, 272 MB, 10.34 load
[runlim] sample:		4133.65 time, 540.01 real, 272 MB, 9.79 load
[runlim] sample:		4211.38 time, 550.01 real, 272 MB, 9.33 load
[runlim] sample:		4278.29 time, 560.01 real, 273 MB, 8.93 load
[runlim] sample:		4349.67 time, 570.01 real, 273 MB, 9.40 load
[runlim] sample:		4424.46 time, 580.01 real, 273 MB, 8.27 load
[runlim] sample:		4496.98 time, 590.01 real, 274 MB, 8.68 load
[runlim] sample:		4574.76 time, 600.01 real, 274 MB, 8.24 load
[runlim] end:			Thu Mar 26 02:49:39 2026
[runlim] status:		out of time
[runlim] result:		2
[runlim] children:		2
[runlim] processes:		3
[runlim] real:			601.06 seconds
[runlim] time:			4574.76 seconds
[runlim] space:			274 MB
[runlim] load:			10.47 maximum
[runlim] samples:		6000
